<number of tasks>
50

<cycle time>
1000

<order strength>
0.195


<task times>
1 255
2 177
3 153
4 217
5 240
6 564
7 504
8 437
9 232
10 185
11 248
12 127
13 494
14 562
15 38
16 26
17 148
18 300
19 483
20 110
21 117
22 312
23 430
24 245
25 97
26 96
27 167
28 234
29 487
30 246
31 418
32 116
33 469
34 225
35 434
36 168
37 52
38 107
39 96
40 127
41 115
42 222
43 429
44 148
45 116
46 147
47 131
48 174
49 447
50 563

<precedence relations>
1,5
2,6
3,7
3,8
3,11
3,22
3,28
4,9
4,10
4,12
4,13
5,20
6,14
7,16
8,17
9,18
10,15
10,19
11,21
11,38
12,35
12,39
13,22
14,23
15,24
16,26
17,25
18,28
19,27
20,33
21,29
21,49
23,32
24,32
25,30
26,32
27,31
28,33
28,34
28,35
29,33
29,50
30,36
31,37
32,38
33,39
33,41
34,42
35,38
35,40
36,44
37,43
39,48
40,45
40,46
42,48
43,47
44,48
46,49
46,50

<end>
